[2026-03-01T19:52:09] Logging to: /run/media/saveas/Secondary-Storage/Masters/CS234/CS234_Reinforcement_Learning/Final Project/CS234_Final_Project/results/trajectory_optimization/nlp/Oval_Track_260m/N200/run_trajopt_demo_output.log
======================================================================
IPOPT TRAJECTORY OPTIMIZATION DEMO (SINGLE STAGE)
======================================================================

1. Loading track: /run/media/saveas/Secondary-Storage/Masters/CS234/CS234_Reinforcement_Learning/Final Project/CS234_Final_Project/maps/Oval_Track_260m.mat
   Track length: 260.0 m

2. Creating vehicle model...
   Vehicle: SingleTrackModel(VW_Golf_GTI, weight_transfer=enabled)

3. Loaded obstacles from map: 0

4. Setup:
   N = 200
   ds = 1.30 m
   Obstacle subsamples/segment = 7
   Obstacle enforce midpoints = False
   Obstacle use slack = False
   Track buffer = 0.00 m
   lambda_u = 0.005
   vehicle_radius_m = 0.00
   eps_s = 0.100, eps_kappa = 0.050
   Solver path = Python/CasADi (IPOPT)

======================================================================
SINGLE STAGE: COMBINED OBJECTIVE (ACCEPTANCE-GATED)
======================================================================
Acceptance gates: success=True, max_slack<=0.000e+00, min_clearance>=-0.0010 m
Acceptance policy: practical epsilon mode (allows tiny negative dense clearance).
Initializer: obstacle_aware_init=True, sigma=8.00 m, margin=0.30 m

Attempt 1/4: baseline
  N=200, ds=1.300 m, subsamples=7, obstacle_clearance_m=0.000
Exception of type: DYNAMIC_LIBRARY_FAILURE in file "Common/IpLibraryLoader.cpp" at line 72:
 Exception message: libhsl.so: cannot open shared object file: No such file or directory

EXIT: Library loading failure.
      solver  :   t_proc      (avg)   t_wall      (avg)    n_eval
       total  | 440.00us (440.00us) 443.01us (443.01us)         1
Solver failed with ipopt.linear_solver=ma57: Error in Opti::solve [OptiNode] at .../casadi/core/optistack.cpp:217:
.../casadi/core/optistack_internal.cpp:1338: Assertion "return_success(accept_limit)" failed:
Solver failed. You may use opti.debug.value to investigate the latest values of variables. return_status is 'Invalid_Option'
Retrying with IPOPT default linear solver.

******************************************************************************
This program contains Ipopt, a library for large-scale nonlinear optimization.
 Ipopt is released as open source code under the Eclipse Public License (EPL).
         For more information visit https://github.com/coin-or/Ipopt
******************************************************************************

This is Ipopt version 3.14.11, running with linear solver MUMPS 5.4.1.

Number of nonzeros in equality constraint Jacobian...:    20423
Number of nonzeros in inequality constraint Jacobian.:     2182
Number of nonzeros in Lagrangian Hessian.............:     7405

Total number of variables............................:     2010
                     variables with only lower bounds:        0
                variables with lower and upper bounds:        0
                     variables with only upper bounds:        0
Total number of equality constraints.................:     1610
Total number of inequality constraints...............:     1694
        inequality constraints with only lower bounds:     1091
   inequality constraints with lower and upper bounds:        0
        inequality constraints with only upper bounds:      603

iter    objective    inf_pr   inf_du lg(mu)  ||d||  lg(rg) alpha_du alpha_pr  ls
   0  2.6000000e+01 7.22e-02 1.03e+00  -1.0 0.00e+00    -  0.00e+00 0.00e+00   0
   1  2.5938835e+01 2.35e-01 5.74e+02  -1.0 4.37e+00   2.0 8.62e-01 1.00e+00H  1
   2  2.5941673e+01 4.10e-01 8.56e+03  -1.0 8.71e-02   4.2 1.00e+00 5.00e-01h  2
   3  2.5946557e+01 1.54e-01 2.16e+03  -1.0 8.51e-02   3.8 1.00e+00 1.00e+00h  1
   4  2.5947650e+01 4.03e-03 7.13e+02  -1.0 1.85e-02   3.3 1.00e+00 1.00e+00h  1
   5  2.5947645e+01 3.24e-06 3.86e+00  -1.0 4.86e-04   2.8 1.00e+00 1.00e+00h  1
   6  2.5947564e+01 2.20e-07 1.72e-02  -1.0 8.16e-05   2.3 1.00e+00 1.00e+00h  1
   7  1.2962208e+01 2.71e+00 1.70e-01  -2.5 1.30e+01    -  4.61e-01 1.00e+00f  1
   8  1.6192891e+01 2.88e+00 1.21e-01  -2.5 5.40e+00    -  7.24e-01 1.00e+00H  1
   9  1.6319945e+01 2.89e+00 7.11e+02  -2.5 2.88e+00   1.8 1.66e-01 2.60e-01h  1
iter    objective    inf_pr   inf_du lg(mu)  ||d||  lg(rg) alpha_du alpha_pr  ls
  10  1.6408768e+01 1.99e+00 1.90e+03  -2.5 3.93e+00   2.3 1.52e-03 2.22e-01h  1
  11  1.6510998e+01 2.53e+00 1.19e+03  -2.5 4.93e+00   2.7 1.01e-03 2.24e-01h  1
  12  1.6567727e+01 2.83e+00 5.89e+04  -2.5 2.91e+00   4.0 4.25e-03 1.69e-01h  1
  13  1.6591399e+01 2.62e+00 7.56e+04  -2.5 4.47e+00   3.6 1.32e-03 7.84e-02h  1
  14  1.6591482e+01 2.62e+00 7.56e+04  -2.5 3.52e+00   4.9 2.14e-01 2.81e-04h  1
  15r 1.6591482e+01 2.62e+00 9.99e+02   0.4 0.00e+00   5.3 0.00e+00 3.25e-07R  5
  16r 1.6598439e+01 9.51e-01 9.97e+02   0.4 2.36e+03    -  1.13e-01 1.10e-03f  1
  17  1.5818760e+01 8.70e+00 8.53e-01  -2.5 7.72e+01    -  1.41e-01 1.47e-01h  1
  18  1.5820081e+01 8.68e+00 1.10e+03  -2.5 6.74e+00   4.8 8.80e-04 2.42e-03h  1
  19r 1.5820081e+01 8.68e+00 9.99e+02   0.9 0.00e+00   4.4 0.00e+00 4.35e-07R  5
iter    objective    inf_pr   inf_du lg(mu)  ||d||  lg(rg) alpha_du alpha_pr  ls
  20r 1.5842030e+01 3.31e+00 9.96e+02   0.9 7.82e+03    -  8.65e-02 1.15e-03f  1
  21  1.5690873e+01 4.18e+00 5.00e-01  -2.5 2.16e+01    -  5.30e-01 5.00e-01H  1
  22  1.5726607e+01 3.84e+00 1.03e+04  -2.5 4.13e+00   3.9 7.59e-03 8.89e-02h  1
  23  1.5726727e+01 3.84e+00 1.03e+04  -2.5 3.66e+00   4.3 2.82e-01 3.03e-04h  1
  24r 1.5726727e+01 3.84e+00 9.99e+02   0.6 0.00e+00   3.8 0.00e+00 4.93e-07R  5
  25r 1.5731785e+01 1.24e+00 9.88e+02   0.6 4.08e+03    -  7.06e-02 1.10e-03f  1
  26  1.5447550e+01 6.57e+00 9.41e-01  -2.5 1.02e+02    -  1.12e-01 5.95e-02h  1
  27  1.5386373e+01 6.60e+00 8.72e-01  -2.5 8.22e+01    -  5.86e-02 7.27e-02h  1
  28  1.5422147e+01 5.91e+00 7.82e-01  -2.5 8.64e+00    -  4.65e-01 1.03e-01h  3
  29  1.5420897e+01 5.85e+00 7.74e-01  -2.5 1.60e+02    -  3.89e-02 1.06e-02h  3
iter    objective    inf_pr   inf_du lg(mu)  ||d||  lg(rg) alpha_du alpha_pr  ls
  30  1.5562739e+01 3.82e+00 5.09e-01  -2.5 1.18e+01    -  6.83e-01 3.42e-01h  2
  31  1.5572354e+01 3.70e+00 5.56e+02  -2.5 2.61e+00   3.3 1.10e-01 3.18e-02h  1
  32  1.5572388e+01 3.70e+00 5.56e+02  -2.5 2.61e+00   3.8 3.39e-01 8.99e-05h  1
  33  1.5573632e+01 3.69e+00 1.70e+04  -2.5 4.16e+00   3.3 1.19e-01 2.95e-03h  1
  34  1.5611337e+01 3.39e+00 3.05e+04  -2.5 3.75e+00   2.8 5.32e-01 8.19e-02h  1
  35  1.5612107e+01 3.38e+00 1.67e+04  -2.5 4.33e+00   2.3 1.00e+00 1.60e-03h  1
  36  1.5740462e+01 2.58e+00 9.84e+04  -2.5 4.44e+00   2.8 4.95e-01 2.48e-01h  1
  37  1.5748780e+01 2.50e+00 4.68e+04  -2.5 1.12e+01   3.2 5.79e-03 2.77e-02h  1
  38  1.5748859e+01 2.50e+00 4.67e+04  -2.5 2.84e+00   2.7 5.83e-01 1.85e-04h  1
  39  1.5800662e+01 2.22e+00 4.15e+04  -2.5 4.21e+00   2.2 8.86e-01 1.14e-01h  1
iter    objective    inf_pr   inf_du lg(mu)  ||d||  lg(rg) alpha_du alpha_pr  ls
  40  1.5961925e+01 1.69e+00 1.23e+05  -2.5 2.41e+00   2.7 6.18e-01 3.65e-01h  1
  41  1.5962591e+01 1.68e+00 1.23e+05  -2.5 1.66e+00   3.1 7.03e-01 2.11e-03h  1
  42  1.5975915e+01 1.63e+00 1.18e+05  -2.5 2.29e+00   2.6 1.00e+00 3.60e-02h  1
  43  1.6141055e+01 1.51e+00 2.67e+04  -2.5 1.70e+00   3.0 1.00e+00 4.87e-01h  1
  44  1.6141564e+01 1.51e+00 2.67e+04  -2.5 3.25e+00   2.6 9.19e-01 1.18e-03h  1
  45  1.6213299e+01 1.29e+00 8.19e+04  -2.5 2.44e+00   3.0 2.16e-01 1.86e-01h  1
  46  1.6214076e+01 1.28e+00 8.17e+04  -2.5 2.05e+00   3.4 6.51e-01 2.33e-03h  1
  47  1.6216855e+01 1.27e+00 2.22e+05  -2.5 1.65e+00   3.8 1.00e+00 9.74e-03h  1
  48  1.6274544e+01 1.07e+00 9.20e+04  -2.5 2.07e+00   3.4 7.60e-01 1.65e-01h  1
  49  1.6306301e+01 9.89e-01 5.82e+04  -2.5 2.58e+00   2.9 8.79e-01 7.64e-02h  1
iter    objective    inf_pr   inf_du lg(mu)  ||d||  lg(rg) alpha_du alpha_pr  ls
  50  1.6326033e+01 9.39e-01 5.50e+04  -2.5 2.24e+00   3.3 1.00e+00 4.99e-02h  1
  51  1.6366284e+01 8.45e-01 4.97e+04  -2.5 2.39e+00   2.8 8.78e-01 1.00e-01h  1
  52  1.6400643e+01 7.67e-01 4.49e+04  -2.5 2.03e+00   3.3 1.00e+00 9.22e-02h  1
  53  1.6445578e+01 6.80e-01 4.00e+04  -2.5 2.33e+00   2.8 1.00e+00 1.13e-01h  1
  54  1.6470104e+01 6.29e-01 3.70e+04  -2.5 1.69e+00   3.2 1.00e+00 7.53e-02h  1
  55  1.6492084e+01 5.95e-01 3.51e+04  -2.5 3.75e+00   2.7 2.87e-01 5.28e-02h  1
  56  1.6500397e+01 5.79e-01 3.41e+04  -2.5 1.53e+00   3.2 1.00e+00 2.77e-02h  1
  57  1.6525128e+01 5.29e-01 3.07e+04  -2.5 1.42e+00   3.6 4.95e-01 8.61e-02h  1
  58  1.6568818e+01 4.50e-01 2.63e+04  -2.5 1.47e+00   3.1 6.76e-01 1.49e-01h  1
  59  1.6571972e+01 4.44e-01 2.60e+04  -2.5 1.14e+00   3.5 1.00e+00 1.32e-02h  1
iter    objective    inf_pr   inf_du lg(mu)  ||d||  lg(rg) alpha_du alpha_pr  ls
  60  1.6595434e+01 4.02e-01 2.36e+04  -2.5 1.22e+00   3.1 9.91e-01 9.53e-02h  1
  61  1.6596034e+01 4.01e-01 2.35e+04  -2.5 1.03e+00   3.5 1.00e+00 2.77e-03h  1
  62  1.6716665e+01 1.93e-01 1.35e+04  -2.5 1.13e+00   3.0 1.00e+00 5.17e-01h  1
  63  1.6717751e+01 1.92e-01 1.30e+04  -2.5 4.87e-01   3.4 1.00e+00 9.92e-03h  1
  64  1.6836041e+01 5.93e-02 2.36e+03  -2.5 5.35e-01   3.0 1.00e+00 1.00e+00h  1
  65  1.6832780e+01 1.64e-03 2.93e+03  -2.5 3.86e-02   3.4 5.97e-01 1.00e+00h  1
  66  1.6832780e+01 2.04e-06 8.62e+00  -2.5 1.35e-03   3.8 9.99e-01 1.00e+00f  1
  67  1.6832917e+01 1.60e-05 2.05e+01  -2.5 2.02e-03   3.3 1.00e+00 5.63e-01f  1
  68  1.6832956e+01 2.35e-06 3.83e-01  -2.5 5.22e-04   2.9 1.00e+00 1.00e+00f  1
  69  1.6833173e+01 4.96e-05 4.11e-01  -2.5 1.74e-03   2.4 1.00e+00 1.00e+00f  1
iter    objective    inf_pr   inf_du lg(mu)  ||d||  lg(rg) alpha_du alpha_pr  ls
  70  1.6833303e+01 6.21e-05 1.57e-01  -2.5 1.99e-03   1.9 1.00e+00 1.00e+00f  1
  71  1.6833515e+01 3.25e-04 1.09e-01  -2.5 4.14e-03   1.4 1.00e+00 1.00e+00f  1
  72  1.6833268e+01 7.28e-04 5.66e-02  -2.5 6.46e-03   0.9 1.00e+00 1.00e+00h  1
  73  1.6831592e+01 1.60e-03 3.42e-02  -2.5 1.17e-02   0.5 1.00e+00 1.00e+00h  1
  74  1.6824498e+01 1.20e-03 2.21e-02  -2.5 2.27e-02  -0.0 1.00e+00 1.00e+00h  1
  75  1.6794052e+01 1.32e-03 3.48e-02  -3.8 1.07e-01  -0.5 9.92e-01 1.00e+00h  1
  76  1.6713533e+01 1.17e-02 3.26e-02  -3.8 3.01e-01  -1.0 1.00e+00 1.00e+00h  1
  77  1.6539182e+01 9.38e-02 2.81e-02  -3.8 7.79e-01  -1.4 1.00e+00 1.00e+00h  1
  78  1.6286001e+01 4.52e-01 2.04e-02  -3.8 1.69e+00  -1.9 1.00e+00 1.00e+00h  1
  79  1.6098699e+01 5.89e-01 1.51e-02  -3.8 2.18e+00  -2.4 9.54e-01 1.00e+00h  1
iter    objective    inf_pr   inf_du lg(mu)  ||d||  lg(rg) alpha_du alpha_pr  ls
  80  1.6093806e+01 1.29e-01 1.93e-02  -3.8 2.62e-01  -1.1 8.69e-01 8.74e-01h  1
  81  1.6080650e+01 1.35e-02 5.98e-03  -3.8 2.10e-01  -1.5 1.00e+00 1.00e+00h  1
  82  1.6049955e+01 3.55e-02 4.15e-03  -3.8 4.37e-01  -2.0 1.00e+00 1.00e+00h  1
  83  1.5982431e+01 1.15e-01 1.77e-02  -3.8 6.28e-01  -2.5 1.00e+00 1.00e+00h  1
  84  1.5979900e+01 1.31e-02 5.74e-03  -3.8 4.85e-02  -1.2 1.00e+00 1.00e+00h  1
  85  1.5971113e+01 2.50e-02 1.84e-03  -3.8 7.73e-02  -1.6 1.00e+00 1.00e+00h  1
  86  1.5946125e+01 4.83e-02 2.47e-03  -3.8 1.98e-01  -2.1 1.00e+00 1.00e+00h  1
  87  1.5878085e+01 2.15e-01 3.80e-03  -3.8 5.83e-01  -2.6 1.00e+00 1.00e+00h  1
  88  1.5817274e+01 8.73e-01 7.21e-03  -3.8 5.55e+01    -  7.86e-02 4.45e-02h  1
  89  1.5791878e+01 1.13e+00 4.37e-03  -3.8 1.08e+00  -3.1 8.35e-01 2.37e-01h  1
iter    objective    inf_pr   inf_du lg(mu)  ||d||  lg(rg) alpha_du alpha_pr  ls
  90  1.5743098e+01 9.64e-01 5.79e-03  -3.8 5.52e+00    -  1.48e-01 1.59e-01h  1
  91  1.5729913e+01 9.05e-01 4.34e-02  -3.8 8.17e-01  -2.7 7.00e-01 1.00e+00h  1
  92  1.5725865e+01 7.85e-01 1.92e-02  -3.8 5.86e-01  -2.2 1.00e+00 1.00e+00h  1
  93  1.5725100e+01 8.80e-01 4.39e-02  -3.8 3.77e-01  -1.8 1.00e+00 1.00e+00h  1
  94  1.5725093e+01 7.88e-01 1.92e-01  -3.8 3.42e-01  -0.5 7.76e-01 1.00e+00h  1
  95  1.5725428e+01 5.48e-01 3.40e-01  -3.8 5.38e-01  -0.0 5.26e-01 2.92e-01h  2
  96  1.5725479e+01 3.10e-01 1.16e+01  -3.8 4.55e-01  -0.5 1.00e+00 2.50e-01h  3
  97  1.5726096e+01 8.83e-02 3.81e+00  -3.8 1.23e-01  -0.1 7.74e-01 8.07e-01h  1
  98  1.5726562e+01 3.73e-03 2.97e-01  -3.8 2.91e-02   0.3 1.00e+00 1.00e+00h  1
  99  1.5726520e+01 1.34e-05 5.59e-03  -3.8 1.06e-03  -0.1 1.00e+00 1.00e+00h  1
iter    objective    inf_pr   inf_du lg(mu)  ||d||  lg(rg) alpha_du alpha_pr  ls
 100  1.5726369e+01 4.33e-04 1.38e-03  -3.8 4.50e-03  -0.6 1.00e+00 1.00e+00h  1
 101  1.5724270e+01 1.46e-03 9.81e-04  -5.7 1.24e-02  -1.1 9.38e-01 1.00e+00h  1
 102  1.5722111e+01 1.31e-03 5.60e-03  -5.7 3.14e-02  -1.6 1.00e+00 4.14e-01h  1
 103  1.5720162e+01 1.34e-03 2.26e-02  -5.7 7.69e-02  -2.1 9.17e-01 2.30e-01h  1
 104  1.5717226e+01 2.65e-03 3.56e-02  -5.7 2.23e-01  -2.5 6.25e-01 2.06e-01h  1
 105  1.5707651e+01 4.76e-02 1.84e-02  -5.7 7.43e-01  -3.0 8.33e-01 3.40e-01h  1
 106  1.5699977e+01 4.82e-02 2.48e-02  -5.7 2.68e+00  -3.5 7.13e-01 1.58e-01h  1
 107  1.5695586e+01 1.56e-01 2.54e-02  -5.7 4.36e+01    -  9.37e-03 1.26e-02h  1
 108  1.5693765e+01 1.55e-01 2.90e-02  -5.7 9.53e+00    -  2.09e-02 8.06e-03h  1
 109  1.5687553e+01 1.50e-01 4.91e-02  -5.7 9.27e+00    -  5.38e-03 3.14e-02f  1
iter    objective    inf_pr   inf_du lg(mu)  ||d||  lg(rg) alpha_du alpha_pr  ls
 110  1.5682886e+01 1.53e-01 4.82e-02  -5.7 5.75e+00    -  1.53e-01 3.10e-02h  1
 111  1.5672658e+01 1.52e-01 4.51e-02  -5.7 1.18e+01    -  7.41e-02 6.28e-02h  1
 112  1.5671772e+01 1.50e-01 4.42e-02  -5.7 5.71e+00    -  8.30e-02 1.15e-02h  1
 113  1.5668909e+01 1.46e-01 4.18e-02  -5.7 4.89e+00    -  1.79e-01 4.18e-02h  1
 114  1.5668330e+01 1.45e-01 4.19e-02  -5.7 3.15e+01    -  8.42e-03 2.74e-03h  1
 115  1.5664151e+01 2.57e-01 3.49e-02  -5.7 2.46e+00  -4.0 1.72e-01 1.69e-01f  1
 116  1.5663225e+01 2.69e-01 3.50e-02  -5.7 1.60e+01  -4.4 5.65e-02 1.42e-02h  1
 117  1.5656919e+01 5.71e-01 4.65e-02  -5.7 8.58e+00    -  1.74e-02 1.12e-01h  1
 118  1.5656852e+01 4.99e-01 3.70e-02  -5.7 2.93e-01  -2.2 7.34e-01 1.29e-01h  1
 119  1.5655823e+01 1.19e-01 7.19e-03  -5.7 2.58e-01  -2.7 1.00e+00 8.24e-01h  1
iter    objective    inf_pr   inf_du lg(mu)  ||d||  lg(rg) alpha_du alpha_pr  ls
 120  1.5652612e+01 7.72e-01 1.30e-02  -5.7 7.23e+00    -  4.38e-02 1.17e-01h  1
 121  1.5652424e+01 2.82e-01 5.21e-03  -5.7 1.11e-01  -2.3 1.00e+00 6.24e-01h  1
 122  1.5652196e+01 2.13e-01 2.60e-02  -5.7 2.08e-01  -2.7 1.00e+00 2.49e-01h  1
 123  1.5650250e+01 6.13e-02 2.80e-02  -5.7 4.17e-01  -3.2 2.57e-01 9.46e-01h  1
 124  1.5648555e+01 1.89e-01 1.88e-02  -5.7 1.79e+00  -3.7 3.12e-01 3.27e-01h  1
 125  1.5647980e+01 2.33e-01 1.94e-02  -5.7 1.20e+01  -4.2 9.04e-02 2.30e-02h  1
 126  1.5645904e+01 8.97e-02 9.54e-03  -5.7 1.69e+00  -3.7 3.77e-01 4.58e-01h  1
 127  1.5644120e+01 1.08e-01 9.21e-03  -5.7 2.46e+01    -  3.36e-02 3.25e-02h  1
 128  1.5642254e+01 3.33e-01 7.59e-03  -5.7 5.32e+00    -  6.74e-02 1.77e-01h  1
 129  1.5642258e+01 3.08e-01 7.81e-03  -5.7 4.45e-01  -2.4 2.06e-01 7.68e-02h  1
iter    objective    inf_pr   inf_du lg(mu)  ||d||  lg(rg) alpha_du alpha_pr  ls
 130  1.5641978e+01 7.41e-01 1.57e-02  -5.7 1.40e+00  -2.9 2.88e-01 2.16e-01f  1
 131  1.5641984e+01 6.51e-02 7.95e-03  -5.7 4.85e-02  -1.6 5.90e-01 1.00e+00h  1
 132  1.5641615e+01 6.95e-02 7.33e-03  -5.7 2.59e+00    -  9.69e-02 6.24e-02h  1
 133  1.5640449e+01 1.33e-01 1.65e-02  -5.7 1.86e+00    -  1.37e-01 2.76e-01h  1
 134  1.5640222e+01 1.21e-01 1.60e-02  -5.7 1.78e+00    -  1.71e-01 6.01e-02h  1
 135  1.5639286e+01 1.41e-01 1.63e-02  -5.7 1.09e+00    -  1.80e-01 4.17e-01h  1
 136  1.5639390e+01 7.93e-02 9.38e-02  -5.7 5.21e-02  -2.0 1.45e-01 1.00e+00h  1
 137  1.5639333e+01 1.84e-02 3.86e-03  -5.7 2.01e-02  -1.6 1.00e+00 1.00e+00h  1
 138  1.5638789e+01 1.60e-01 4.56e-03  -5.7 1.24e+00    -  1.38e-01 2.41e-01h  1
 139  1.5638703e+01 2.00e-02 1.02e-01  -5.7 8.60e-02  -2.1 1.13e-01 1.00e+00h  1
iter    objective    inf_pr   inf_du lg(mu)  ||d||  lg(rg) alpha_du alpha_pr  ls
 140  1.5637444e+01 6.87e-01 8.59e-02  -5.7 4.58e+00    -  8.20e-02 1.67e-01h  1
 141  1.5635615e+01 9.73e-01 4.75e-02  -5.7 1.99e+00    -  1.42e-01 4.07e-01h  1
 142  1.5635359e+01 3.27e-01 9.62e-03  -5.7 1.99e-01  -2.6 6.74e-01 8.81e-01h  1
 143  1.5635065e+01 3.07e-01 9.04e-03  -5.7 3.20e+00    -  1.68e-01 4.33e-02h  1
 144  1.5633899e+01 2.95e-01 1.08e-02  -5.7 2.19e+00    -  1.81e-01 3.16e-01h  1
 145  1.5633891e+01 2.93e-01 2.65e-02  -5.7 7.61e-01    -  1.74e-01 8.18e-03h  1
 146  1.5633555e+01 3.30e-01 2.46e-02  -5.7 5.83e+00    -  7.98e-02 6.79e-02f  1
 147  1.5633421e+01 3.33e-01 2.37e-02  -5.7 3.51e+00    -  2.20e-02 3.53e-02h  1
 148  1.5633270e+01 3.50e-01 2.34e-02  -5.7 1.52e+01    -  4.53e-03 8.80e-03h  1
 149  1.5632282e+01 6.59e-01 1.10e-01  -5.7 2.44e+00    -  1.60e-02 2.50e-01f  1
iter    objective    inf_pr   inf_du lg(mu)  ||d||  lg(rg) alpha_du alpha_pr  ls
 150  1.5632106e+01 5.17e-01 8.60e-02  -5.7 1.57e+00    -  2.17e-01 2.17e-01h  1
 151  1.5631513e+01 3.43e-01 5.94e-02  -5.7 3.28e+00    -  8.45e-02 4.48e-01h  1
 152  1.5630719e+01 8.36e-01 4.03e-02  -5.7 4.36e+00    -  1.07e-01 3.20e-01h  1
 153  1.5630682e+01 5.99e-01 2.90e-02  -5.7 1.04e+00    -  1.69e-01 2.83e-01h  1
 154  1.5630656e+01 3.71e-01 1.82e-02  -5.7 1.21e+00    -  2.85e-01 3.81e-01h  1
 155  1.5630759e+01 1.52e-01 8.92e-03  -5.7 7.90e-01    -  3.88e-01 5.75e-01h  1
 156  1.5630828e+01 5.49e-02 2.18e-03  -5.7 3.45e-01    -  7.89e-01 1.00e+00h  1
 157  1.5630861e+01 2.01e-03 9.51e-05  -5.7 1.07e-01    -  1.00e+00 1.00e+00h  1
 158  1.5630860e+01 1.15e-04 2.79e-05  -5.7 2.53e-02    -  1.00e+00 1.00e+00h  1
 159  1.5630860e+01 8.95e-06 1.02e-06  -5.7 2.24e-03    -  1.00e+00 1.00e+00h  1
iter    objective    inf_pr   inf_du lg(mu)  ||d||  lg(rg) alpha_du alpha_pr  ls
 160  1.5630719e+01 2.74e-04 2.41e-04  -7.0 4.91e-02    -  9.76e-01 8.30e-01h  1
 161  1.5630691e+01 8.74e-05 2.59e-05  -7.0 1.73e-02    -  1.00e+00 1.00e+00h  1
 162  1.5630691e+01 1.49e-06 2.46e-06  -7.0 2.20e-03    -  1.00e+00 1.00e+00h  1
 163  1.5630691e+01 2.05e-08 3.24e-08  -7.0 1.46e-04    -  1.00e+00 1.00e+00h  1

Number of Iterations....: 163

                                   (scaled)                 (unscaled)
Objective...............:   1.5630690748966435e+01    1.5630690748966435e+01
Dual infeasibility......:   3.2424558381624168e-08    3.2424558381624168e-08
Constraint violation....:   2.0478985618410661e-08    2.0478985618410661e-08
Variable bound violation:   0.0000000000000000e+00    0.0000000000000000e+00
Complementarity.........:   9.0959666146183138e-08    9.0959666146183138e-08
Overall NLP error.......:   9.0959666146183138e-08    9.0959666146183138e-08


Number of objective function evaluations             = 201
Number of objective gradient evaluations             = 164
Number of equality constraint evaluations            = 201
Number of inequality constraint evaluations          = 201
Number of equality constraint Jacobian evaluations   = 167
Number of inequality constraint Jacobian evaluations = 167
Number of Lagrangian Hessian evaluations             = 163
Total seconds in IPOPT                               = 31.757

EXIT: Optimal Solution Found.
      solver  :   t_proc      (avg)   t_wall      (avg)    n_eval
       nlp_f  |   8.09ms ( 40.22us)   8.09ms ( 40.23us)       201
       nlp_g  |   1.02 s (  5.07ms)   1.02 s (  5.09ms)       201
  nlp_grad_f  |  10.89ms ( 65.99us)  10.92ms ( 66.15us)       165
  nlp_hess_l  |  21.73 s (135.80ms)  21.82 s (136.36ms)       160
   nlp_jac_g  |   6.23 s ( 37.06ms)   6.25 s ( 37.21ms)       168
       total  |  31.63 s ( 31.63 s)  31.76 s ( 31.76 s)         1
  Success: True
  Cost: 15.6307
  Iterations: 163
  Solve time: 50.06 s
  Max obstacle slack: 0.0000e+00
  Min obstacle clearance: inf m
  Accepted: True

Accepted attempt: baseline

Generating plots...
  Saved: /run/media/saveas/Secondary-Storage/Masters/CS234/CS234_Reinforcement_Learning/Final Project/CS234_Final_Project/results/trajectory_optimization/nlp/Oval_Track_260m/N200/ipopt_single_stage_trajectory.png
  Saved: /run/media/saveas/Secondary-Storage/Masters/CS234/CS234_Reinforcement_Learning/Final Project/CS234_Final_Project/results/trajectory_optimization/nlp/Oval_Track_260m/N200/ipopt_single_stage_states.png
  Saved: /run/media/saveas/Secondary-Storage/Masters/CS234/CS234_Reinforcement_Learning/Final Project/CS234_Final_Project/results/trajectory_optimization/nlp/Oval_Track_260m/N200/ipopt_single_stage_controls.png

Generating animation...
  Saved: /run/media/saveas/Secondary-Storage/Masters/CS234/CS234_Reinforcement_Learning/Final Project/CS234_Final_Project/results/trajectory_optimization/nlp/Oval_Track_260m/N200/ipopt_single_stage_animation.gif

======================================================================
SUMMARY
======================================================================
Selected attempt: baseline
Attempt                    N      Subs   Clear    Iters    Time [s]   Cost [s]   Max Sigma    Min Clear [m]  Accepted
-----------------------------------------------------------------------------------------------------------------------------
baseline                   200    7      0.000    163      50.06      15.6307    0.000e+00    inf            True

All outputs saved to: /run/media/saveas/Secondary-Storage/Masters/CS234/CS234_Reinforcement_Learning/Final Project/CS234_Final_Project/results/trajectory_optimization/nlp/Oval_Track_260m/N200
